p cnf 485 884
-275 391 0
-391 275 0
-393 -394 0
-283 393 0
-284 394 0
-393 283 0
-394 284 0
-396 -397 0
-286 396 0
-287 397 0
-396 286 0
-397 287 0
-399 409 410 411 412 413 0
-409 -410 0
-409 -411 0
-409 -412 0
-409 -413 0
-410 -411 0
-410 -412 0
-410 -413 0
-411 -412 0
-411 -413 0
-412 -413 0
-399 414 415 416 417 418 419 420 0
-414 -415 0
-414 -416 0
-414 -417 0
-414 -418 0
-414 -419 0
-414 -420 0
-415 -416 0
-415 -417 0
-415 -418 0
-415 -419 0
-415 -420 0
-416 -417 0
-416 -418 0
-416 -419 0
-416 -420 0
-417 -418 0
-417 -419 0
-417 -420 0
-418 -419 0
-418 -420 0
-419 -420 0
-399 421 422 423 424 425 426 427 428 0
-421 -422 0
-421 -423 0
-421 -424 0
-421 -425 0
-421 -426 0
-421 -427 0
-421 -428 0
-422 -423 0
-422 -424 0
-422 -425 0
-422 -426 0
-422 -427 0
-422 -428 0
-423 -424 0
-423 -425 0
-423 -426 0
-423 -427 0
-423 -428 0
-424 -425 0
-424 -426 0
-424 -427 0
-424 -428 0
-425 -426 0
-425 -427 0
-425 -428 0
-426 -427 0
-426 -428 0
-427 -428 0
-399 407 0
-399 408 0
-399 406 0
-401 409 410 411 412 413 0
-409 -410 0
-409 -411 0
-409 -412 0
-409 -413 0
-410 -411 0
-410 -412 0
-410 -413 0
-411 -412 0
-411 -413 0
-412 -413 0
-401 414 415 416 417 418 419 420 0
-414 -415 0
-414 -416 0
-414 -417 0
-414 -418 0
-414 -419 0
-414 -420 0
-415 -416 0
-415 -417 0
-415 -418 0
-415 -419 0
-415 -420 0
-416 -417 0
-416 -418 0
-416 -419 0
-416 -420 0
-417 -418 0
-417 -419 0
-417 -420 0
-418 -419 0
-418 -420 0
-419 -420 0
-401 421 422 423 424 425 426 427 428 0
-421 -422 0
-421 -423 0
-421 -424 0
-421 -425 0
-421 -426 0
-421 -427 0
-421 -428 0
-422 -423 0
-422 -424 0
-422 -425 0
-422 -426 0
-422 -427 0
-422 -428 0
-423 -424 0
-423 -425 0
-423 -426 0
-423 -427 0
-423 -428 0
-424 -425 0
-424 -426 0
-424 -427 0
-424 -428 0
-425 -426 0
-425 -427 0
-425 -428 0
-426 -427 0
-426 -428 0
-427 -428 0
-401 404 0
-401 405 0
-401 406 0
-399 -400 0
-399 -401 0
-399 -402 0
-400 -401 0
-400 -402 0
-401 -402 0
-425 -404 227 0
-424 -404 216 0
-426 -404 217 0
-422 -404 248 0
-421 -404 222 0
-423 -404 243 0
-427 -404 239 0
-428 -404 224 0
-409 -405 351 0
-412 -405 329 0
-411 -405 321 0
-410 -405 332 0
-413 -405 333 0
-412 -414 -406 342 0
-412 -419 -406 317 0
-412 -415 -406 318 0
-410 -418 -406 319 0
-412 -420 -406 322 0
-409 -415 -406 323 0
-411 -415 -406 345 0
-413 -418 -406 346 0
-411 -420 -406 324 0
-412 -417 -406 327 0
-411 -418 -406 328 0
-409 -418 -406 347 0
-413 -419 -406 330 0
-413 -415 -406 348 0
-409 -419 -406 349 0
-412 -416 -406 334 0
-410 -415 -406 335 0
-413 -414 -406 336 0
-413 -416 -406 337 0
-410 -420 -406 352 0
-413 -420 -406 339 0
-412 -418 -406 340 0
-409 -420 -406 353 0
-410 -416 -406 354 0
-409 -416 -406 355 0
-422 -407 343 0
-427 -407 329 0
-428 -407 320 0
-423 -407 321 0
-426 -407 332 0
-424 -407 333 0
-425 -407 350 0
-421 -407 351 0
-409 -408 222 0
-413 -408 216 0
-410 -408 217 0
-411 -408 243 0
-412 -408 239 0
-399 -411 -423 0
-399 -411 -426 0
-399 -411 -427 0
-399 -411 -424 0
-399 -411 -421 0
-399 -409 -427 0
-399 -409 -424 0
-399 -409 -421 0
-399 -412 -427 0
-399 -410 -426 0
-399 -410 -427 0
-399 -410 -424 0
-399 -410 -421 0
-399 -413 -427 0
-399 -413 -424 0
-399 -411 -417 0
-399 -411 -419 0
-399 -411 -414 0
-399 -411 -416 0
-399 -409 -417 0
-399 -409 -414 0
-399 -410 -417 0
-399 -410 -419 0
-399 -410 -414 0
-399 -413 -417 0
-401 -411 -423 0
-401 -411 -426 0
-401 -411 -427 0
-401 -411 -424 0
-401 -411 -421 0
-401 -409 -427 0
-401 -409 -424 0
-401 -409 -421 0
-401 -412 -427 0
-401 -410 -426 0
-401 -410 -427 0
-401 -410 -424 0
-401 -410 -421 0
-401 -413 -427 0
-401 -413 -424 0
-401 -411 -417 0
-401 -411 -419 0
-401 -411 -414 0
-401 -411 -416 0
-401 -409 -417 0
-401 -409 -414 0
-401 -410 -417 0
-401 -410 -419 0
-401 -410 -414 0
-401 -413 -417 0
-313 401 0
-314 402 0
-315 399 0
-312 400 0
-399 315 0
-400 312 0
-401 313 0
-402 314 0
-429 431 0
-430 -431 0
-216 432 -399 413 0
-216 432 -401 424 0
-216 432 399 401 0
216 -432 -399 417 0
216 -432 -401 413 0
216 -432 399 401 0
-217 433 -399 410 0
-217 433 -401 426 0
-217 433 399 401 0
217 -433 -399 419 0
217 -433 -401 410 0
217 -433 399 401 0
-318 434 -399 -412 415 0
-318 434 -399 412 0
-318 434 -401 -412 415 0
-318 434 -401 412 0
-318 434 399 401 0
318 -434 -399 -412 422 0
318 -434 -399 412 0
318 -434 -401 -412 422 0
318 -434 -401 412 0
318 -434 399 401 0
-319 435 -399 -410 418 0
-319 435 -399 410 0
-319 435 -401 -410 418 0
-319 435 -401 410 0
-319 435 399 401 0
319 -435 -399 -410 425 0
319 -435 -399 410 0
319 -435 -401 -410 425 0
319 -435 -401 410 0
319 -435 399 401 0
-321 436 -399 423 0
-321 436 -401 411 0
-321 436 399 401 0
321 -436 -399 411 0
321 -436 -401 416 0
321 -436 399 401 0
-322 437 -399 -412 420 0
-322 437 -399 412 0
-322 437 -401 -412 420 0
-322 437 -401 412 0
-322 437 399 401 0
322 -437 -399 -412 428 0
322 -437 -399 412 0
322 -437 -401 -412 428 0
322 -437 -401 412 0
322 -437 399 401 0
-323 438 -399 -409 415 0
-323 438 -399 409 0
-323 438 -401 -409 415 0
-323 438 -401 409 0
-323 438 399 401 0
323 -438 -399 -409 422 0
323 -438 -399 409 0
323 -438 -401 -409 422 0
323 -438 -401 409 0
323 -438 399 401 0
-224 439 -401 428 0
-224 439 401 0
224 -439 -399 420 0
224 -439 399 0
-324 440 -399 -411 420 0
-324 440 -399 411 0
-324 440 -401 -411 420 0
-324 440 -401 411 0
-324 440 399 401 0
324 -440 -399 -411 428 0
324 -440 -399 411 0
324 -440 -401 -411 428 0
324 -440 -401 411 0
324 -440 399 401 0
-327 441 -399 -412 417 0
-327 441 -399 412 0
-327 441 -401 -412 417 0
-327 441 -401 412 0
-327 441 399 401 0
327 -441 -399 -412 424 0
327 -441 -399 412 0
327 -441 -401 -412 424 0
327 -441 -401 412 0
327 -441 399 401 0
-329 442 -399 427 0
-329 442 -401 412 0
-329 442 399 401 0
329 -442 -399 412 0
329 -442 399 0
-330 443 -399 -413 419 0
-330 443 -399 413 0
-330 443 -401 -413 419 0
-330 443 -401 413 0
-330 443 399 401 0
330 -443 -399 -413 426 0
330 -443 -399 413 0
330 -443 -401 -413 426 0
330 -443 -401 413 0
330 -443 399 401 0
-333 444 -399 424 0
-333 444 -401 413 0
-333 444 399 401 0
333 -444 -399 413 0
333 -444 -401 417 0
333 -444 399 401 0
-336 445 -399 -413 414 0
-336 445 -399 413 0
-336 445 -401 -413 414 0
-336 445 -401 413 0
-336 445 399 401 0
336 -445 -399 -413 421 0
336 -445 -399 413 0
336 -445 -401 -413 421 0
336 -445 -401 413 0
336 -445 399 401 0
-339 446 -399 -413 420 0
-339 446 -399 413 0
-339 446 -401 -413 420 0
-339 446 -401 413 0
-339 446 399 401 0
339 -446 -399 -413 428 0
339 -446 -399 413 0
339 -446 -401 -413 428 0
339 -446 -401 413 0
339 -446 399 401 0
-342 447 -399 -412 414 0
-342 447 -399 412 0
-342 447 -401 -412 414 0
-342 447 -401 412 0
-342 447 399 401 0
342 -447 -399 -412 421 0
342 -447 -399 412 0
342 -447 -401 -412 421 0
342 -447 -401 412 0
342 -447 399 401 0
-343 448 -399 422 0
-343 448 399 0
343 -448 -401 415 0
343 -448 401 0
-243 449 -399 411 0
-243 449 -401 423 0
-243 449 399 401 0
243 -449 -399 416 0
243 -449 -401 411 0
243 -449 399 401 0
-345 450 -399 -411 415 0
-345 450 -399 411 0
-345 450 -401 -411 415 0
-345 450 -401 411 0
-345 450 399 401 0
345 -450 -399 -411 422 0
345 -450 -399 411 0
345 -450 -401 -411 422 0
345 -450 -401 411 0
345 -450 399 401 0
-347 451 -399 -409 418 0
-347 451 -399 409 0
-347 451 -401 -409 418 0
-347 451 -401 409 0
-347 451 399 401 0
347 -451 -399 -409 425 0
347 -451 -399 409 0
347 -451 -401 -409 425 0
347 -451 -401 409 0
347 -451 399 401 0
-248 452 -401 422 0
-248 452 401 0
248 -452 -399 415 0
248 -452 399 0
-350 453 -399 425 0
-350 453 399 0
350 -453 -401 418 0
350 -453 401 0
-352 454 -399 -410 420 0
-352 454 -399 410 0
-352 454 -401 -410 420 0
-352 454 -401 410 0
-352 454 399 401 0
352 -454 -399 -410 428 0
352 -454 -399 410 0
352 -454 -401 -410 428 0
352 -454 -401 410 0
352 -454 399 401 0
-317 455 -399 -412 419 0
-317 455 -399 412 0
-317 455 -401 -412 419 0
-317 455 -401 412 0
-317 455 399 401 0
317 -455 -399 -412 426 0
317 -455 -399 412 0
317 -455 -401 -412 426 0
317 -455 -401 412 0
317 -455 399 401 0
-320 456 -399 428 0
-320 456 399 0
320 -456 -401 420 0
320 -456 401 0
-222 457 -399 409 0
-222 457 -401 421 0
-222 457 399 401 0
222 -457 -399 414 0
222 -457 -401 409 0
222 -457 399 401 0
-227 458 -401 425 0
-227 458 401 0
227 -458 -399 418 0
227 -458 399 0
-328 459 -399 -411 418 0
-328 459 -399 411 0
-328 459 -401 -411 418 0
-328 459 -401 411 0
-328 459 399 401 0
328 -459 -399 -411 425 0
328 -459 -399 411 0
328 -459 -401 -411 425 0
328 -459 -401 411 0
328 -459 399 401 0
-332 460 -399 426 0
-332 460 -401 410 0
-332 460 399 401 0
332 -460 -399 410 0
332 -460 -401 419 0
332 -460 399 401 0
-334 461 -399 -412 416 0
-334 461 -399 412 0
-334 461 -401 -412 416 0
-334 461 -401 412 0
-334 461 399 401 0
334 -461 -399 -412 423 0
334 -461 -399 412 0
334 -461 -401 -412 423 0
334 -461 -401 412 0
334 -461 399 401 0
-335 462 -399 -410 415 0
-335 462 -399 410 0
-335 462 -401 -410 415 0
-335 462 -401 410 0
-335 462 399 401 0
335 -462 -399 -410 422 0
335 -462 -399 410 0
335 -462 -401 -410 422 0
335 -462 -401 410 0
335 -462 399 401 0
-337 463 -399 -413 416 0
-337 463 -399 413 0
-337 463 -401 -413 416 0
-337 463 -401 413 0
-337 463 399 401 0
337 -463 -399 -413 423 0
337 -463 -399 413 0
337 -463 -401 -413 423 0
337 -463 -401 413 0
337 -463 399 401 0
-239 464 -399 412 0
-239 464 -401 427 0
-239 464 399 401 0
239 -464 -401 412 0
239 -464 401 0
-340 465 -399 -412 418 0
-340 465 -399 412 0
-340 465 -401 -412 418 0
-340 465 -401 412 0
-340 465 399 401 0
340 -465 -399 -412 425 0
340 -465 -399 412 0
340 -465 -401 -412 425 0
340 -465 -401 412 0
340 -465 399 401 0
-346 466 -399 -413 418 0
-346 466 -399 413 0
-346 466 -401 -413 418 0
-346 466 -401 413 0
-346 466 399 401 0
346 -466 -399 -413 425 0
346 -466 -399 413 0
346 -466 -401 -413 425 0
346 -466 -401 413 0
346 -466 399 401 0
-348 467 -399 -413 415 0
-348 467 -399 413 0
-348 467 -401 -413 415 0
-348 467 -401 413 0
-348 467 399 401 0
348 -467 -399 -413 422 0
348 -467 -399 413 0
348 -467 -401 -413 422 0
348 -467 -401 413 0
348 -467 399 401 0
-349 468 -399 -409 419 0
-349 468 -399 409 0
-349 468 -401 -409 419 0
-349 468 -401 409 0
-349 468 399 401 0
349 -468 -399 -409 426 0
349 -468 -399 409 0
349 -468 -401 -409 426 0
349 -468 -401 409 0
349 -468 399 401 0
-351 469 -399 421 0
-351 469 -401 409 0
-351 469 399 401 0
351 -469 -399 409 0
351 -469 -401 414 0
351 -469 399 401 0
-353 470 -399 -409 420 0
-353 470 -399 409 0
-353 470 -401 -409 420 0
-353 470 -401 409 0
-353 470 399 401 0
353 -470 -399 -409 428 0
353 -470 -399 409 0
353 -470 -401 -409 428 0
353 -470 -401 409 0
353 -470 399 401 0
-354 471 -399 -410 416 0
-354 471 -399 410 0
-354 471 -401 -410 416 0
-354 471 -401 410 0
-354 471 399 401 0
354 -471 -399 -410 423 0
354 -471 -399 410 0
354 -471 -401 -410 423 0
354 -471 -401 410 0
354 -471 399 401 0
-355 472 -399 -409 416 0
-355 472 -399 409 0
-355 472 -401 -409 416 0
-355 472 -401 409 0
-355 472 399 401 0
355 -472 -399 -409 423 0
355 -472 -399 409 0
355 -472 -401 -409 423 0
355 -472 -401 409 0
355 -472 399 401 0
-429 -430 0
-425 473 -458 0
-424 473 -432 0
-426 473 -433 0
-422 473 -452 0
-421 473 -457 0
-423 473 -449 0
-427 473 -464 0
-428 473 -439 0
-412 -414 474 -447 0
-412 -419 474 -455 0
-412 -415 474 -434 0
-410 -418 474 -435 0
-412 -420 474 -437 0
-409 -415 474 -438 0
-411 -415 474 -450 0
-413 -418 474 -466 0
-411 -420 474 -440 0
-412 -417 474 -441 0
-411 -418 474 -459 0
-409 -418 474 -451 0
-413 -419 474 -443 0
-413 -415 474 -467 0
-409 -419 474 -468 0
-412 -416 474 -461 0
-410 -415 474 -462 0
-413 -414 474 -445 0
-413 -416 474 -463 0
-410 -420 474 -454 0
-413 -420 474 -446 0
-412 -418 474 -465 0
-409 -420 474 -470 0
-410 -416 474 -471 0
-409 -416 474 -472 0
-415 -475 448 0
-420 -475 456 0
-416 -475 436 0
-419 -475 460 0
-417 -475 444 0
-418 -475 453 0
-414 -475 469 0
-409 476 -457 0
-413 476 -432 0
-410 476 -433 0
-411 476 -449 0
-412 476 -464 0
-409 -476 457 0
-413 -476 432 0
-410 -476 433 0
-411 -476 449 0
-412 -476 464 0
-418 -477 458 0
-417 -477 432 0
-419 -477 433 0
-415 -477 452 0
-414 -477 457 0
-416 -477 449 0
-420 -477 439 0
-412 -421 -478 447 0
-412 -426 -478 455 0
-412 -422 -478 434 0
-410 -425 -478 435 0
-412 -428 -478 437 0
-409 -422 -478 438 0
-411 -422 -478 450 0
-413 -425 -478 466 0
-411 -428 -478 440 0
-412 -424 -478 441 0
-411 -425 -478 459 0
-409 -425 -478 451 0
-413 -426 -478 443 0
-413 -422 -478 467 0
-409 -426 -478 468 0
-412 -423 -478 461 0
-410 -422 -478 462 0
-413 -421 -478 445 0
-413 -423 -478 463 0
-410 -428 -478 454 0
-413 -428 -478 446 0
-412 -425 -478 465 0
-409 -428 -478 470 0
-410 -423 -478 471 0
-409 -423 -478 472 0
-409 479 -469 0
-412 479 -442 0
-411 479 -436 0
-410 479 -460 0
-413 479 -444 0
-409 -479 469 0
-412 -479 442 0
-411 -479 436 0
-410 -479 460 0
-413 -479 444 0
-422 480 -448 0
-427 480 -442 0
-428 480 -456 0
-423 480 -436 0
-426 480 -460 0
-424 480 -444 0
-425 480 -453 0
-421 480 -469 0
-481 421 -409 0
-481 -421 409 0
-481 426 -410 0
-481 -426 410 0
-481 423 -411 0
-481 -423 411 0
-481 427 -412 0
-481 -427 412 0
-481 424 -413 0
-481 -424 413 0
-421 -409 481 0
-426 -410 481 0
-423 -411 481 0
-427 -412 481 0
-424 -413 481 0
-425 -481 0
-422 -481 0
-428 -481 0
-482 421 -414 0
-482 -421 414 0
-482 422 -415 0
-482 -422 415 0
-482 423 -416 0
-482 -423 416 0
-482 424 -417 0
-482 -424 417 0
-482 425 -418 0
-482 -425 418 0
-482 426 -419 0
-482 -426 419 0
-482 428 -420 0
-482 -428 420 0
-421 -414 482 0
-422 -415 482 0
-423 -416 482 0
-424 -417 482 0
-425 -418 482 0
-426 -419 482 0
-428 -420 482 0
-427 -482 0
-399 -480 481 0
-483 409 -414 0
-483 -409 414 0
-483 410 -419 0
-483 -410 419 0
-483 411 -416 0
-483 -411 416 0
-483 413 -417 0
-483 -413 417 0
-409 -414 483 0
-410 -419 483 0
-411 -416 483 0
-413 -417 483 0
-412 -483 0
-418 -483 0
-415 -483 0
-420 -483 0
-399 -476 483 0
-399 479 0
-399 477 0
-484 414 -421 0
-484 -414 421 0
-484 415 -422 0
-484 -415 422 0
-484 416 -423 0
-484 -416 423 0
-484 417 -424 0
-484 -417 424 0
-484 418 -425 0
-484 -418 425 0
-484 419 -426 0
-484 -419 426 0
-484 420 -428 0
-484 -420 428 0
-414 -421 484 0
-415 -422 484 0
-416 -423 484 0
-417 -424 484 0
-418 -425 484 0
-419 -426 484 0
-420 -428 484 0
-427 -484 0
-399 -474 484 0
-399 478 0
-401 475 0
-401 -473 481 0
-401 -479 483 0
-401 476 0
-401 -474 484 0
-401 478 0
-313 430 0
-314 429 0
-315 430 0
-312 429 0
-430 313 315 0
-429 314 312 0
-432 151 -431 0
432 -151 -431 0
-433 152 -431 0
433 -152 -431 0
-434 154 -431 0
434 -154 -431 0
-435 155 -431 0
435 -155 -431 0
-436 385 -431 0
436 -385 -431 0
-437 156 -431 0
437 -156 -431 0
-438 158 -431 0
438 -158 -431 0
-439 159 -431 0
439 -159 -431 0
-440 160 -431 0
440 -160 -431 0
-441 10 -431 0
441 -10 -431 0
-442 162 -431 0
442 -162 -431 0
-443 163 -431 0
443 -163 -431 0
-331 270 -431 0
331 -270 -431 0
-444 386 -431 0
444 -386 -431 0
-445 11 -431 0
445 -11 -431 0
-338 271 -431 0
338 -271 -431 0
-446 167 -431 0
446 -167 -431 0
-447 170 -431 0
447 -170 -431 0
-448 171 -431 0
448 -171 -431 0
-449 172 -431 0
449 -172 -431 0
-344 273 -431 0
344 -273 -431 0
-450 12 -431 0
450 -12 -431 0
-451 174 -431 0
451 -174 -431 0
-452 274 -431 0
452 -274 -431 0
-453 387 -431 0
453 -387 -431 0
-454 176 -431 0
454 -176 -431 0
-455 153 -431 0
455 -153 -431 0
-456 388 -431 0
456 -388 -431 0
-457 157 -431 0
457 -157 -431 0
-325 267 -431 0
325 -267 -431 0
-458 268 -431 0
458 -268 -431 0
-326 269 -431 0
326 -269 -431 0
-459 161 -431 0
459 -161 -431 0
-460 389 -431 0
460 -389 -431 0
-461 164 -431 0
461 -164 -431 0
-462 165 -431 0
462 -165 -431 0
-463 166 -431 0
463 -166 -431 0
-464 168 -431 0
464 -168 -431 0
-465 169 -431 0
465 -169 -431 0
-341 272 -431 0
341 -272 -431 0
-466 173 -431 0
466 -173 -431 0
-467 175 -431 0
467 -175 -431 0
-468 13 -431 0
468 -13 -431 0
-469 390 -431 0
469 -390 -431 0
-470 177 -431 0
470 -177 -431 0
-471 14 -431 0
471 -14 -431 0
-472 178 -431 0
472 -178 -431 0
-383 485 0
-485 383 0
a 431 0
